decision_x1=[0,2];
decision_x2=[0,2];
decision_x3=[0,2];
decision_x4=[0,2];
decision_x5=[0,2];
decision_x6=[0,2];
decision_x7=[0,2];
decision_x8=[0,2];
decision_x9=[0,2];
decision_x10=[0,2];
random_y1=[0,2];
random_y2=[0,2];
constraint_x3_x1=[
0,1,5.1|
0,2,1.6|
1,0,3.6|
1,2,5.4|
2,0,0.1|
2,1,2.4|
];
constraint_x3_x2=[
0,1,8.4|
0,2,8.7|
1,0,5.9|
1,2,5.7|
2,0,3.6|
2,1,7.5|
];
constraint_x4_x1=[
0,1,0.41|
0,2,2.7|
1,0,2.9|
1,2,9|
2,0,4.7|
2,1,6.4|
];
constraint_x4_x2=[
0,1,8.3|
0,2,2.2|
1,0,5.4|
1,2,6.7|
2,0,4.3|
2,1,2.8|
];
constraint_x5_x2=[
0,1,4.2|
0,2,9.9|
1,0,4.5|
1,2,1.6|
2,0,0.68|
2,1,1.1|
];
constraint_x6_x1=[
0,1,0.9|
0,2,6|
1,0,9.8|
1,2,9.5|
2,0,2.7|
2,1,1.5|
];
constraint_x6_x2=[
0,1,0.85|
0,2,7.6|
1,0,7.1|
1,2,3.1|
2,0,5.4|
2,1,7|
];
constraint_x6_x4=[
0,1,0.86|
0,2,6.1|
1,0,4.8|
1,2,7.1|
2,0,9.8|
2,1,2|
];
constraint_x7_x2=[
0,1,8.9|
0,2,5.1|
1,0,8.6|
1,2,2.3|
2,0,2.8|
2,1,1|
];
constraint_x7_x3=[
0,1,1.2|
0,2,0.35|
1,0,0.084|
1,2,5.7|
2,0,1.1|
2,1,1.8|
];
constraint_x7_x4=[
0,1,6.4|
0,2,3.7|
1,0,0.97|
1,2,7.6|
2,0,2.6|
2,1,0.16|
];
constraint_x8_x1=[
0,1,8.4|
0,2,4.5|
1,0,4.7|
1,2,9.1|
2,0,7.3|
2,1,1.2|
];
constraint_x8_x2=[
0,1,6.1|
0,2,0.39|
1,0,8.4|
1,2,2.4|
2,0,6.4|
2,1,9.4|
];
constraint_x8_x3=[
0,1,0.38|
0,2,6.6|
1,0,9.6|
1,2,8.2|
2,0,5.5|
2,1,4.5|
];
constraint_x8_x4=[
0,1,4.6|
0,2,8|
1,0,8.2|
1,2,3.1|
2,0,4.7|
2,1,8.5|
];
constraint_x8_x7=[
0,1,6.3|
0,2,1.2|
1,0,0.52|
1,2,0.67|
2,0,3.4|
2,1,7|
];
constraint_x9_x1=[
0,1,6.5|
0,2,9.4|
1,0,8.8|
1,2,4.2|
2,0,5.9|
2,1,3.7|
];
constraint_x9_x2=[
0,1,0.61|
0,2,2.5|
1,0,6|
1,2,5.6|
2,0,9.4|
2,1,3.8|
];
constraint_x9_x8=[
0,1,7.4|
0,2,5.9|
1,0,3|
1,2,2.3|
2,0,9.3|
2,1,7.7|
];
constraint_x10_x1=[
0,1,7.8|
0,2,6.4|
1,0,6.8|
1,2,3.9|
2,0,7.8|
2,1,1.3|
];
constraint_x10_x2=[
0,1,6.1|
0,2,8.3|
1,0,9.5|
1,2,2|
2,0,4.8|
2,1,3.2|
];
constraint_x10_x4=[
0,1,0.72|
0,2,4.6|
1,0,2.6|
1,2,0.89|
2,0,7.9|
2,1,6|
];
constraint_x10_x5=[
0,1,3.8|
0,2,8.8|
1,0,1.4|
1,2,2.7|
2,0,7.6|
2,1,5|
];
constraint_x1_y1=[
0,0,5.8|
0,1,9.2|
0,2,5|
1,0,0.78|
1,1,4.7|
1,2,4.7|
2,0,7.3|
2,1,0.48|
2,2,8.1|
];
constraint_x2_y2=[
0,0,8.8|
0,1,0.56|
0,2,8.8|
1,0,8|
1,1,7.7|
1,2,2.6|
2,0,3.6|
2,1,9.7|
2,2,9.3|
];
initial_distribution_y1=[0.24,0.63,0.14];
initial_distribution_y2=[0.24,0.12,0.64];
transition_y1=[
0.28,0.25,0.46|
0.15,0.63,0.22|
0.33,0.19,0.49|
];
transition_y2=[
0.54,0.12,0.34|
0.31,0.24,0.45|
0.42,0.37,0.22|
];
